NAME : tsp_265_sol.txt
COMMENT : OR-Tools Guided Local Search
TYPE : TOUR
DIMENSION : 50
COST : 6061
STATUS : ROUTING_SUCCESS
GAP : 0.00% (Reference Solution)
TOUR_SECTION
1
11
40
33
43
29
21
48
8
17
24
32
38
12
49
25
41
50
44
47
18
28
31
13
37
16
23
42
20
27
36
5
7
22
4
6
19
46
34
10
2
14
39
45
26
30
3
35
9
15
-1
